Nodes = {"ATLAM5", "ATLAng", "CHINng", "DNVRng", "HSTNng", "IPLSng", "KSCYng", "LOSAng", "NYCMng", "SNVAng", "STTLng", "WASHng"};
Arcs = {<"ATLAM5","ATLAng",24,0>, <"ATLAM5","CHINng",24,9>, <"ATLAM5","DNVRng",24,22>, <"ATLAM5","HSTNng",24,12>, <"ATLAM5","IPLSng",24,6>, <"ATLAM5","KSCYng",24,13>, <"ATLAM5","LOSAng",24,34>, <"ATLAM5","NYCMng",24,13>, <"ATLAM5","SNVAng",24,38>, <"ATLAM5","STTLng",24,40>, <"ATLAM5","WASHng",24,9>, <"ATLAng","ATLAM5",24,0>, <"ATLAng","CHINng",24,8>, <"ATLAng","DNVRng",24,20>, <"ATLAng","HSTNng",24,0>, <"ATLAng","IPLSng",24,0>, <"ATLAng","KSCYng",24,12>, <"ATLAng","LOSAng",24,33>, <"ATLAng","NYCMng",24,13>, <"ATLAng","SNVAng",24,37>, <"ATLAng","STTLng",24,39>, <"ATLAng","WASHng",24,0>, <"CHINng","ATLAM5",24,9>, <"CHINng","ATLAng",24,8>, <"CHINng","DNVRng",24,17>, <"CHINng","HSTNng",24,14>, <"CHINng","IPLSng",24,0>, <"CHINng","KSCYng",24,9>, <"CHINng","LOSAng",24,32>, <"CHINng","NYCMng",24,0>, <"CHINng","SNVAng",24,35>, <"CHINng","STTLng",24,35>, <"CHINng","WASHng",24,11>, <"DNVRng","ATLAM5",24,22>, <"DNVRng","ATLAng",24,20>, <"DNVRng","CHINng",24,17>, <"DNVRng","HSTNng",24,15>, <"DNVRng","IPLSng",24,19>, <"DNVRng","KSCYng",24,0>, <"DNVRng","LOSAng",24,15>, <"DNVRng","NYCMng",24,31>, <"DNVRng","SNVAng",24,0>, <"DNVRng","STTLng",24,0>, <"DNVRng","WASHng",24,28>, <"HSTNng","ATLAM5",24,12>, <"HSTNng","ATLAng",24,0>, <"HSTNng","CHINng",24,14>, <"HSTNng","DNVRng",24,15>, <"HSTNng","IPLSng",24,14>, <"HSTNng","KSCYng",24,0>, <"HSTNng","LOSAng",24,0>, <"HSTNng","NYCMng",24,24>, <"HSTNng","SNVAng",24,28>, <"HSTNng","STTLng",24,32>, <"HSTNng","WASHng",24,21>, <"IPLSng","ATLAM5",24,6>, <"IPLSng","ATLAng",24,0>, <"IPLSng","CHINng",24,0>, <"IPLSng","DNVRng",24,19>, <"IPLSng","HSTNng",24,14>, <"IPLSng","KSCYng",24,0>, <"IPLSng","LOSAng",24,33>, <"IPLSng","NYCMng",24,12>, <"IPLSng","SNVAng",24,36>, <"IPLSng","STTLng",24,37>, <"IPLSng","WASHng",24,9>, <"KSCYng","ATLAM5",24,13>, <"KSCYng","ATLAng",24,12>, <"KSCYng","CHINng",24,9>, <"KSCYng","DNVRng",24,0>, <"KSCYng","HSTNng",24,0>, <"KSCYng","IPLSng",24,0>, <"KSCYng","LOSAng",24,22>, <"KSCYng","NYCMng",24,23>, <"KSCYng","SNVAng",24,25>, <"KSCYng","STTLng",24,27>, <"KSCYng","WASHng",24,20>, <"LOSAng","ATLAM5",24,34>, <"LOSAng","ATLAng",24,33>, <"LOSAng","CHINng",24,32>, <"LOSAng","DNVRng",24,15>, <"LOSAng","HSTNng",24,0>, <"LOSAng","IPLSng",24,33>, <"LOSAng","KSCYng",24,22>, <"LOSAng","NYCMng",24,45>, <"LOSAng","SNVAng",24,0>, <"LOSAng","STTLng",24,14>, <"LOSAng","WASHng",24,42>, <"NYCMng","ATLAM5",24,13>, <"NYCMng","ATLAng",24,13>, <"NYCMng","CHINng",24,0>, <"NYCMng","DNVRng",24,31>, <"NYCMng","HSTNng",24,24>, <"NYCMng","IPLSng",24,12>, <"NYCMng","KSCYng",24,23>, <"NYCMng","LOSAng",24,45>, <"NYCMng","SNVAng",24,48>, <"NYCMng","STTLng",24,49>, <"NYCMng","WASHng",24,0>, <"SNVAng","ATLAM5",24,38>, <"SNVAng","ATLAng",24,37>, <"SNVAng","CHINng",24,35>, <"SNVAng","DNVRng",24,0>, <"SNVAng","HSTNng",24,28>, <"SNVAng","IPLSng",24,36>, <"SNVAng","KSCYng",24,25>, <"SNVAng","LOSAng",24,0>, <"SNVAng","NYCMng",24,48>, <"SNVAng","STTLng",24,0>, <"SNVAng","WASHng",24,45>, <"STTLng","ATLAM5",24,40>, <"STTLng","ATLAng",24,39>, <"STTLng","CHINng",24,35>, <"STTLng","DNVRng",24,0>, <"STTLng","HSTNng",24,32>, <"STTLng","IPLSng",24,37>, <"STTLng","KSCYng",24,27>, <"STTLng","LOSAng",24,14>, <"STTLng","NYCMng",24,49>, <"STTLng","SNVAng",24,0>, <"STTLng","WASHng",24,46>, <"WASHng","ATLAM5",24,9>, <"WASHng","ATLAng",24,0>, <"WASHng","CHINng",24,11>, <"WASHng","DNVRng",24,28>, <"WASHng","HSTNng",24,21>, <"WASHng","IPLSng",24,9>, <"WASHng","KSCYng",24,20>, <"WASHng","LOSAng",24,42>, <"WASHng","NYCMng",24,0>, <"WASHng","SNVAng",24,45>, <"WASHng","STTLng",24,46>};
Demands = {<"ATLAM5","ATLAng",2,0>, <"ATLAM5","CHINng",4,0>, <"ATLAM5","DNVRng",6,0>, <"ATLAM5","HSTNng",8,0>, <"ATLAM5","IPLSng",10,0>, <"ATLAM5","KSCYng",12,0>, <"ATLAM5","LOSAng",14,0>, <"ATLAM5","NYCMng",16,0>, <"ATLAM5","SNVAng",18,0>, <"ATLAM5","STTLng",20,0>, <"ATLAM5","WASHng",22,0>, <"ATLAng","ATLAM5",2,0>, <"ATLAng","CHINng",2,0>, <"ATLAng","DNVRng",4,0>, <"ATLAng","HSTNng",6,0>, <"ATLAng","IPLSng",8,0>, <"ATLAng","KSCYng",10,0>, <"ATLAng","LOSAng",12,0>, <"ATLAng","NYCMng",14,0>, <"ATLAng","SNVAng",16,0>, <"ATLAng","STTLng",18,0>, <"ATLAng","WASHng",20,0>, <"CHINng","ATLAM5",4,0>, <"CHINng","ATLAng",2,0>, <"CHINng","DNVRng",2,0>, <"CHINng","HSTNng",4,0>, <"CHINng","IPLSng",6,0>, <"CHINng","KSCYng",8,0>, <"CHINng","LOSAng",10,0>, <"CHINng","NYCMng",12,0>, <"CHINng","SNVAng",14,0>, <"CHINng","STTLng",16,0>, <"CHINng","WASHng",18,0>, <"DNVRng","ATLAM5",6,0>, <"DNVRng","ATLAng",4,0>, <"DNVRng","CHINng",2,0>, <"DNVRng","HSTNng",2,0>, <"DNVRng","IPLSng",4,0>, <"DNVRng","KSCYng",6,0>, <"DNVRng","LOSAng",8,0>, <"DNVRng","NYCMng",10,0>, <"DNVRng","SNVAng",12,0>, <"DNVRng","STTLng",14,0>, <"DNVRng","WASHng",16,0>, <"HSTNng","ATLAM5",8,0>, <"HSTNng","ATLAng",6,0>, <"HSTNng","CHINng",4,0>, <"HSTNng","DNVRng",2,0>, <"HSTNng","IPLSng",2,0>, <"HSTNng","KSCYng",4,0>, <"HSTNng","LOSAng",6,0>, <"HSTNng","NYCMng",8,0>, <"HSTNng","SNVAng",10,0>, <"HSTNng","STTLng",12,0>, <"HSTNng","WASHng",14,0>, <"IPLSng","ATLAM5",10,0>, <"IPLSng","ATLAng",8,0>, <"IPLSng","CHINng",6,0>, <"IPLSng","DNVRng",4,0>, <"IPLSng","HSTNng",2,0>, <"IPLSng","KSCYng",2,0>, <"IPLSng","LOSAng",4,0>, <"IPLSng","NYCMng",6,0>, <"IPLSng","SNVAng",8,0>, <"IPLSng","STTLng",10,0>, <"IPLSng","WASHng",12,0>, <"KSCYng","ATLAM5",12,0>, <"KSCYng","ATLAng",10,0>, <"KSCYng","CHINng",8,0>, <"KSCYng","DNVRng",6,0>, <"KSCYng","HSTNng",4,0>, <"KSCYng","IPLSng",2,0>, <"KSCYng","LOSAng",2,0>, <"KSCYng","NYCMng",4,0>, <"KSCYng","SNVAng",6,0>, <"KSCYng","STTLng",8,0>, <"KSCYng","WASHng",10,0>, <"LOSAng","ATLAM5",14,0>, <"LOSAng","ATLAng",12,0>, <"LOSAng","CHINng",10,0>, <"LOSAng","DNVRng",8,0>, <"LOSAng","HSTNng",6,0>, <"LOSAng","IPLSng",4,0>, <"LOSAng","KSCYng",2,0>, <"LOSAng","NYCMng",2,0>, <"LOSAng","SNVAng",4,0>, <"LOSAng","STTLng",6,0>, <"LOSAng","WASHng",8,0>, <"NYCMng","ATLAM5",16,0>, <"NYCMng","ATLAng",14,0>, <"NYCMng","CHINng",12,0>, <"NYCMng","DNVRng",10,0>, <"NYCMng","HSTNng",8,0>, <"NYCMng","IPLSng",6,0>, <"NYCMng","KSCYng",4,0>, <"NYCMng","LOSAng",2,0>, <"NYCMng","SNVAng",2,0>, <"NYCMng","STTLng",4,0>, <"NYCMng","WASHng",6,0>, <"SNVAng","ATLAM5",18,0>, <"SNVAng","ATLAng",16,0>, <"SNVAng","CHINng",14,0>, <"SNVAng","DNVRng",12,0>, <"SNVAng","HSTNng",10,0>, <"SNVAng","IPLSng",8,0>, <"SNVAng","KSCYng",6,0>, <"SNVAng","LOSAng",4,0>, <"SNVAng","NYCMng",2,0>, <"SNVAng","STTLng",2,0>, <"SNVAng","WASHng",4,0>, <"STTLng","ATLAM5",20,0>, <"STTLng","ATLAng",18,0>, <"STTLng","CHINng",16,0>, <"STTLng","DNVRng",14,0>, <"STTLng","HSTNng",12,0>, <"STTLng","IPLSng",10,0>, <"STTLng","KSCYng",8,0>, <"STTLng","LOSAng",6,0>, <"STTLng","NYCMng",4,0>, <"STTLng","SNVAng",2,0>, <"STTLng","WASHng",2,0>, <"WASHng","ATLAM5",22,0>, <"WASHng","ATLAng",20,0>, <"WASHng","CHINng",18,0>, <"WASHng","DNVRng",16,0>, <"WASHng","HSTNng",14,0>, <"WASHng","IPLSng",12,0>, <"WASHng","KSCYng",10,0>, <"WASHng","LOSAng",8,0>, <"WASHng","NYCMng",6,0>, <"WASHng","SNVAng",4,0>, <"WASHng","STTLng",2,0>};
